% Auto-generated by scripts/generate_dzn.py
% problem_type   = regex
% instance       = regex_54
% source_json    = instances_json/1_medium_blowup/regex_54.json
% blowup         = 3.0
% representation = DFA

mode = 0;

var_count = 18;
n_constraints = 2;
Q = 49;
S = 2;
q0 = [1, 1];
F = [{29, 30, 31, 32, 33, 34, 35, 36, 37, 38, 39, 40, 41, 42, 43, 44, 45, 46, 47, 48, 49}, {13}];
weights = [8, 6, 3, 10, 10, 10, 5, 7, 3, 1, 4, 1, 5, 2, 10, 7, 1, 5];
d_dfa = array3d(1..2, 1..49, 1..2, [
  % k = 1
    2, 1,
    3, 1,
    5, 4,
    7, 6,
    9, 8,
    11, 10,
    12, 10,
    14, 13,
    16, 15,
    18, 17,
    19, 17,
    21, 20,
    23, 22,
    24, 22,
    26, 25,
    28, 27,
    30, 29,
    31, 29,
    33, 32,
    35, 34,
    37, 36,
    39, 38,
    40, 38,
    42, 41,
    44, 43,
    45, 43,
    47, 46,
    49, 48,
    2, 1,
    3, 1,
    5, 4,
    7, 6,
    9, 8,
    11, 10,
    12, 10,
    14, 13,
    16, 15,
    30, 29,
    31, 29,
    33, 32,
    35, 34,
    37, 36,
    39, 38,
    40, 38,
    42, 41,
    44, 43,
    45, 43,
    47, 46,
    49, 48,

  % k = 2
    2, 1,
    3, 2,
    4, 3,
    5, 4,
    6, 5,
    7, 6,
    8, 7,
    9, 8,
    10, 9,
    11, 10,
    12, 11,
    13, 12,
    14, 13,
    14, 14,
    0, 0,
    0, 0,
    0, 0,
    0, 0,
    0, 0,
    0, 0,
    0, 0,
    0, 0,
    0, 0,
    0, 0,
    0, 0,
    0, 0,
    0, 0,
    0, 0,
    0, 0,
    0, 0,
    0, 0,
    0, 0,
    0, 0,
    0, 0,
    0, 0,
    0, 0,
    0, 0,
    0, 0,
    0, 0,
    0, 0,
    0, 0,
    0, 0,
    0, 0,
    0, 0,
    0, 0,
    0, 0,
    0, 0,
    0, 0,
    0, 0
]);
d_nfa = array3d(1..2, 1..49, 1..2, [
  % k = 1
    {}, {},
    {}, {},
    {}, {},
    {}, {},
    {}, {},
    {}, {},
    {}, {},
    {}, {},
    {}, {},
    {}, {},
    {}, {},
    {}, {},
    {}, {},
    {}, {},
    {}, {},
    {}, {},
    {}, {},
    {}, {},
    {}, {},
    {}, {},
    {}, {},
    {}, {},
    {}, {},
    {}, {},
    {}, {},
    {}, {},
    {}, {},
    {}, {},
    {}, {},
    {}, {},
    {}, {},
    {}, {},
    {}, {},
    {}, {},
    {}, {},
    {}, {},
    {}, {},
    {}, {},
    {}, {},
    {}, {},
    {}, {},
    {}, {},
    {}, {},
    {}, {},
    {}, {},
    {}, {},
    {}, {},
    {}, {},
    {}, {},

  % k = 2
    {}, {},
    {}, {},
    {}, {},
    {}, {},
    {}, {},
    {}, {},
    {}, {},
    {}, {},
    {}, {},
    {}, {},
    {}, {},
    {}, {},
    {}, {},
    {}, {},
    {}, {},
    {}, {},
    {}, {},
    {}, {},
    {}, {},
    {}, {},
    {}, {},
    {}, {},
    {}, {},
    {}, {},
    {}, {},
    {}, {},
    {}, {},
    {}, {},
    {}, {},
    {}, {},
    {}, {},
    {}, {},
    {}, {},
    {}, {},
    {}, {},
    {}, {},
    {}, {},
    {}, {},
    {}, {},
    {}, {},
    {}, {},
    {}, {},
    {}, {},
    {}, {},
    {}, {},
    {}, {},
    {}, {},
    {}, {},
    {}, {}
]);
